\ Model Bin
\ LP format - for model browsing. Use MPS format to capture full model detail.
Maximize
  min
Subject To
 R0: 48 open[0,0] <= 100
 R1: 48 open[0,1] <= 150
 R2: 48 open[0,2] <= 150
 R3: 48 open[0,3] <= 100
 R4: 10 open[1,0] <= 100
 R5: 10 open[1,1] <= 150
 R6: 10 open[1,2] <= 150
 R7: 10 open[1,3] <= 100
 R8: 52 open[2,0] <= 100
 R9: 52 open[2,1] <= 150
 R10: 52 open[2,2] <= 150
 R11: 52 open[2,3] <= 100
 R12: 37 open[3,0] <= 100
 R13: 37 open[3,1] <= 150
 R14: 37 open[3,2] <= 150
 R15: 37 open[3,3] <= 100
 R16: 11 open[4,0] <= 100
 R17: 11 open[4,1] <= 150
 R18: 11 open[4,2] <= 150
 R19: 11 open[4,3] <= 100
 R20: 44 open[5,0] <= 100
 R21: 44 open[5,1] <= 150
 R22: 44 open[5,2] <= 150
 R23: 44 open[5,3] <= 100
 R24: 25 open[6,0] <= 100
 R25: 25 open[6,1] <= 150
 R26: 25 open[6,2] <= 150
 R27: 25 open[6,3] <= 100
 R28: 53 open[7,0] <= 100
 R29: 53 open[7,1] <= 150
 R30: 53 open[7,2] <= 150
 R31: 53 open[7,3] <= 100
 R32: 41 open[8,0] <= 100
 R33: 41 open[8,1] <= 150
 R34: 41 open[8,2] <= 150
 R35: 41 open[8,3] <= 100
 R36: 33 open[9,0] <= 100
 R37: 33 open[9,1] <= 150
 R38: 33 open[9,2] <= 150
 R39: 33 open[9,3] <= 100
 R40: 2.5 open[0,0] + 1.5 open[1,0] + 3.5 open[2,0] + 3.5 open[3,0]
   + 2.5 open[4,0] + 2.5 open[5,0] + 2.5 open[6,0] + 3.5 open[7,0]
   + 1.5 open[8,0] + 3.5 open[9,0] <= 245
 R41: 2.5 open[0,1] + 1.5 open[1,1] + 3.5 open[2,1] + 3.5 open[3,1]
   + 2.5 open[4,1] + 2.5 open[5,1] + 2.5 open[6,1] + 3.5 open[7,1]
   + 1.5 open[8,1] + 3.5 open[9,1] <= 245
 R42: 2.5 open[0,2] + 1.5 open[1,2] + 3.5 open[2,2] + 3.5 open[3,2]
   + 2.5 open[4,2] + 2.5 open[5,2] + 2.5 open[6,2] + 3.5 open[7,2]
   + 1.5 open[8,2] + 3.5 open[9,2] <= 245
 R43: 2.5 open[0,3] + 1.5 open[1,3] + 3.5 open[2,3] + 3.5 open[3,3]
   + 2.5 open[4,3] + 2.5 open[5,3] + 2.5 open[6,3] + 3.5 open[7,3]
   + 1.5 open[8,3] + 3.5 open[9,3] <= 245
 R44: 0.04 open[0,0] + 0.00416666666666667 open[1,0] + 0.065 open[2,0]
   + 0.04625 open[3,0] + 0.00916666666666667 open[4,0]
   + 0.0366666666666667 open[5,0] + 0.0208333333333333 open[6,0]
   + 0.06625 open[7,0] + 0.0170833333333333 open[8,0] + 0.04125 open[9,0]
   - min >= 0
 R45: 0.0266666666666667 open[0,1] + 0.00277777777777778 open[1,1]
   + 0.0433333333333333 open[2,1] + 0.0308333333333333 open[3,1]
   + 0.00611111111111111 open[4,1] + 0.0244444444444444 open[5,1]
   + 0.0138888888888889 open[6,1] + 0.0441666666666667 open[7,1]
   + 0.0113888888888889 open[8,1] + 0.0275 open[9,1] - min >= 0
 R46: 0.0266666666666667 open[0,2] + 0.00277777777777778 open[1,2]
   + 0.0433333333333333 open[2,2] + 0.0308333333333333 open[3,2]
   + 0.00611111111111111 open[4,2] + 0.0244444444444444 open[5,2]
   + 0.0138888888888889 open[6,2] + 0.0441666666666667 open[7,2]
   + 0.0113888888888889 open[8,2] + 0.0275 open[9,2] - min >= 0
 R47: 0.04 open[0,3] + 0.00416666666666667 open[1,3] + 0.065 open[2,3]
   + 0.04625 open[3,3] + 0.00916666666666667 open[4,3]
   + 0.0366666666666667 open[5,3] + 0.0208333333333333 open[6,3]
   + 0.06625 open[7,3] + 0.0170833333333333 open[8,3] + 0.04125 open[9,3]
   - min >= 0
 R48: open[0,0] + open[0,1] + open[0,2] + open[0,3] = 1
 R49: open[1,0] + open[1,1] + open[1,2] + open[1,3] = 1
 R50: open[2,0] + open[2,1] + open[2,2] + open[2,3] = 1
 R51: open[3,0] + open[3,1] + open[3,2] + open[3,3] = 1
 R52: open[4,0] + open[4,1] + open[4,2] + open[4,3] = 1
 R53: open[5,0] + open[5,1] + open[5,2] + open[5,3] = 1
 R54: open[6,0] + open[6,1] + open[6,2] + open[6,3] = 1
 R55: open[7,0] + open[7,1] + open[7,2] + open[7,3] = 1
 R56: open[8,0] + open[8,1] + open[8,2] + open[8,3] = 1
 R57: open[9,0] + open[9,1] + open[9,2] + open[9,3] = 1
Bounds
Binaries
 open[0,0] open[0,1] open[0,2] open[0,3] open[1,0] open[1,1] open[1,2]
 open[1,3] open[2,0] open[2,1] open[2,2] open[2,3] open[3,0] open[3,1]
 open[3,2] open[3,3] open[4,0] open[4,1] open[4,2] open[4,3] open[5,0]
 open[5,1] open[5,2] open[5,3] open[6,0] open[6,1] open[6,2] open[6,3]
 open[7,0] open[7,1] open[7,2] open[7,3] open[8,0] open[8,1] open[8,2]
 open[8,3] open[9,0] open[9,1] open[9,2] open[9,3]
End
